
Gurobi 11.0.3 (linux64) logging started Mon Nov 25 03:18:26 2024

Set parameter LogFile to value "/home/yihong/Coding/OR_SUC/SUC_results_bigM100000_thread4/case24_ieee_rts_theta0.1_epsilon0.025_gurobi_seed1450000_num_gen100_N_WDR100_load_scaling_factor1_exact_T12quadra_cost.txt"
Set parameter TimeLimit to value 3600
Gurobi Optimizer version 11.0.3 build v11.0.3rc0 (linux64 - "Ubuntu 20.04.6 LTS")

CPU model: AMD EPYC 7532 32-Core Processor, instruction set [SSE2|AVX|AVX2]
Thread count: 64 physical cores, 128 logical processors, using up to 4 threads

Optimize a model with 25823 rows, 15081 columns and 355770 nonzeros
Model fingerprint: 0xd00cb8f1
Model has 1200 quadratic constraints
Variable types: 13781 continuous, 1300 integer (1300 binary)
Coefficient statistics:
  Matrix range     [3e-04, 1e+05]
  QMatrix range    [2e-03, 8e-03]
  QLMatrix range   [1e-02, 6e+01]
  Objective range  [1e+00, 1e+00]
  Bounds range     [1e+00, 1e+00]
  RHS range        [1e+00, 1e+05]
Presolve removed 20977 rows and 6650 columns
Presolve time: 0.11s
Presolved: 4846 rows, 8431 columns, 33348 nonzeros
Presolved model has 1200 quadratic constraint(s)
Variable types: 7186 continuous, 1245 integer (1245 binary)

Root relaxation: objective 1.786645e+04, 3522 iterations, 0.06 seconds (0.07 work units)

    Nodes    |    Current Node    |     Objective Bounds      |     Work
 Expl Unexpl |  Obj  Depth IntInf | Incumbent    BestBd   Gap | It/Node Time

     0     0 17866.4517    0    4          - 17866.4517      -     -    0s
     0     0 253768.693    0  303          - 253768.693      -     -    0s
     0     0 386973.807    0  150          - 386973.807      -     -    0s
     0     0 386976.173    0  150          - 386976.173      -     -    0s
     0     0 387215.143    0  123          - 387215.143      -     -    0s
     0     0 387217.148    0  123          - 387217.148      -     -    0s
     0     0 387217.148    0  123          - 387217.148      -     -    0s
     0     0 387217.322    0  123          - 387217.322      -     -    0s
     0     2 387217.322    0  123          - 387217.322      -     -    2s
H  481   266                    387751.43048 387227.736  0.14%   9.8    3s
*  481   266              72    387751.43048 387227.736  0.14%   9.8    3s
H  488   220                    387227.73874 387227.736  0.00%   9.8    3s
*  488   220              71    387227.73874 387227.736  0.00%   9.8    3s

Cutting planes:
  Gomory: 63
  Implied bound: 335
  MIR: 79
  Flow cover: 87
  PSD: 5

Explored 575 nodes (14519 simplex iterations) in 4.01 seconds (4.25 work units)
Thread count was 4 (of 128 available processors)

Solution count 3: 387228 387228 387751 

Optimal solution found (tolerance 1.00e-03)
Warning: max constraint violation (2.6923e-08) exceeds tolerance
Best objective 3.872277387433e+05, best bound 3.872277362064e+05, gap 0.0000%
